(set-info :smt-lib-version 2.6)
(set-logic QF_S)
(set-info :source |
Generated by: Hung-En Wang, Tzung-Lin Tsai, Chun-Han Lin, Fang Yu, and Jie-Hong R. Jiang
Generated on: 2019-02-28
Generator: Stranger
Application: Security analysis of string manipulating web applications
Target solver: CVC4, Norn, Z3-str2
Publication:
Hung-En Wang, Tzung-Lin Tsai, Chun-Han Lin, Fang Yu, Jie-Hong R. Jiang:
String Analysis via Automata Manipulation with Logic Circuit Representation. CAV (1) 2016: 241-260.
|)
(set-info :license "https://creativecommons.org/licenses/by/4.0/")
(set-info :category "industrial")
(set-info :status unknown)

(declare-fun sigmaStar_0 () String)
(declare-fun sigmaStar_3 () String)
(declare-fun sigmaStar_6 () String)
(declare-fun x_2 () String)
(declare-fun epsilon () String)
(declare-fun literal_8 () String)
(declare-fun x_7 () String)
(declare-fun x_9 () String)
(declare-fun literal_10 () String)
(declare-fun x_11 () String)
(declare-fun x_12 () String)
(declare-fun literal_13 () String)
(declare-fun x_14 () String)
(assert (= epsilon ""))
(assert (or (= x_2 epsilon) (= x_2 sigmaStar_0)))
(assert (= x_7 (str.replace x_2 "\u{2f}\u{2e}\u{28}\u{5c}\u{64}\u{2b}\u{29}\u{2e}\u{2f}" "\u{5f}\u{24}\u{31}\u{2e}")))
(assert (= literal_8 "\u{20}\u{20}\u{20}\u{20}"))
(assert (= x_9 (str.++ literal_8 x_7)))
(assert (= literal_10 "\u{20}\u{3d}\u{20}\u{27}"))
(assert (= x_11 (str.++ x_9 literal_10)))
(assert (= x_12 (str.++ x_11 x_2)))
(assert (= literal_13 "\u{27}\u{3b}\u{5c}\u{6e}"))
(assert (= x_14 (str.++ x_12 literal_13)))
(assert (str.in_re x_14 (re.++ (re.* re.allchar) (re.++ (str.to_re "\u{5c}\u{3c}\u{53}\u{43}\u{52}\u{49}\u{50}\u{54}") (re.* re.allchar)))))
(check-sat)
(exit)
